NAME : in_house_9_2
TYPE : TSP
DIMENSION : 9
EDGE_WEIGHT_TYPE : EXPLICIT
EDGE_WEIGHT_FORMAT : UPPER_ROW
COMMENT : INVERSION_SHIFT=5
EDGE_WEIGHT_SECTION
17
13
58
36
51
29
24
16
77
3
15
17
10
24
46
41
40
22
24
35
66
6
37
11
59
9
38
62
57
33
75
12
21
75
77
76
